# Objective value = 8
x0,1_1 0
x0,1_15 0
x0,1_21 0
x0,1_28 0
x0,1_44 0
x0,1_62 0
x0,1_74 0
x0,1_76 0
x0,1_101 0
x0,1_109 0
x0,2_1 0
x0,2_15 0
x0,2_21 0
x0,2_28 1
x0,2_44 0
x0,2_62 0
x0,2_74 0
x0,2_76 0
x0,2_101 0
x0,2_109 0
x0,3_1 0
x0,3_15 0
x0,3_21 0
x0,3_28 0
x0,3_44 0
x0,3_62 0
x0,3_74 0
x0,3_76 0
x0,3_101 0
x0,3_109 0
x0,4_1 0
x0,4_15 0
x0,4_21 0
x0,4_28 0
x0,4_44 0
x0,4_62 0
x0,4_74 0
x0,4_76 0
x0,4_101 1
x0,4_109 0
x0,5_1 0
x0,5_15 0
x0,5_21 0
x0,5_28 0
x0,5_44 0
x0,5_62 0
x0,5_74 0
x0,5_76 0
x0,5_101 0
x0,5_109 0
x0,6_1 0
x0,6_15 0
x0,6_21 0
x0,6_28 0
x0,6_44 0
x0,6_62 0
x0,6_74 0
x0,6_76 0
x0,6_101 0
x0,6_109 0
x0,7_1 0
x0,7_15 0
x0,7_21 0
x0,7_28 0
x0,7_44 0
x0,7_62 0
x0,7_74 0
x0,7_76 0
x0,7_101 0
x0,7_109 0
x0,8_1 0
x0,8_15 0
x0,8_21 0
x0,8_28 0
x0,8_44 0
x0,8_62 0
x0,8_74 0
x0,8_76 0
x0,8_101 0
x0,8_109 0
x0,9_1 0
x0,9_15 0
x0,9_21 0
x0,9_28 0
x0,9_44 0
x0,9_62 0
x0,9_74 0
x0,9_76 0
x0,9_101 0
x0,9_109 0
x0,10_1 0
x0,10_15 0
x0,10_21 0
x0,10_28 0
x0,10_44 0
x0,10_62 0
x0,10_74 0
x0,10_76 0
x0,10_101 0
x0,10_109 0
x1,2_1 0
x1,2_15 0
x1,2_21 1
x1,2_28 0
x1,2_44 0
x1,2_62 0
x1,2_74 0
x1,2_76 0
x1,2_101 0
x1,2_109 0
x1,3_1 0
x1,3_15 0
x1,3_21 0
x1,3_28 0
x1,3_44 1
x1,3_62 0
x1,3_74 0
x1,3_76 0
x1,3_101 0
x1,3_109 0
x1,4_1 0
x1,4_15 0
x1,4_21 0
x1,4_28 0
x1,4_44 0
x1,4_62 0
x1,4_74 0
x1,4_76 0
x1,4_101 0
x1,4_109 0
x1,5_1 0
x1,5_15 0
x1,5_21 0
x1,5_28 0
x1,5_44 0
x1,5_62 0
x1,5_74 0
x1,5_76 0
x1,5_101 0
x1,5_109 0
x1,6_1 0
x1,6_15 0
x1,6_21 0
x1,6_28 0
x1,6_44 0
x1,6_62 0
x1,6_74 0
x1,6_76 0
x1,6_101 0
x1,6_109 1
x1,7_1 0
x1,7_15 0
x1,7_21 0
x1,7_28 0
x1,7_44 0
x1,7_62 0
x1,7_74 0
x1,7_76 0
x1,7_101 0
x1,7_109 0
x1,8_1 0
x1,8_15 0
x1,8_21 0
x1,8_28 0
x1,8_44 0
x1,8_62 0
x1,8_74 0
x1,8_76 0
x1,8_101 0
x1,8_109 0
x1,9_1 0
x1,9_15 0
x1,9_21 0
x1,9_28 0
x1,9_44 0
x1,9_62 0
x1,9_74 0
x1,9_76 0
x1,9_101 0
x1,9_109 0
x1,10_1 0
x1,10_15 0
x1,10_21 0
x1,10_28 0
x1,10_44 0
x1,10_62 0
x1,10_74 0
x1,10_76 0
x1,10_101 0
x1,10_109 0
x2,3_1 0
x2,3_15 0
x2,3_21 0
x2,3_28 0
x2,3_44 0
x2,3_62 0
x2,3_74 0
x2,3_76 0
x2,3_101 0
x2,3_109 0
x2,4_1 0
x2,4_15 0
x2,4_21 0
x2,4_28 0
x2,4_44 0
x2,4_62 0
x2,4_74 0
x2,4_76 0
x2,4_101 0
x2,4_109 0
x2,5_1 0
x2,5_15 0
x2,5_21 0
x2,5_28 0
x2,5_44 0
x2,5_62 0
x2,5_74 1
x2,5_76 0
x2,5_101 0
x2,5_109 0
x2,6_1 0
x2,6_15 0
x2,6_21 0
x2,6_28 0
x2,6_44 0
x2,6_62 0
x2,6_74 0
x2,6_76 0
x2,6_101 0
x2,6_109 0
x2,7_1 0
x2,7_15 0
x2,7_21 0
x2,7_28 0
x2,7_44 0
x2,7_62 0
x2,7_74 0
x2,7_76 0
x2,7_101 0
x2,7_109 0
x2,8_1 0
x2,8_15 0
x2,8_21 0
x2,8_28 0
x2,8_44 0
x2,8_62 0
x2,8_74 0
x2,8_76 0
x2,8_101 0
x2,8_109 0
x2,9_1 0
x2,9_15 0
x2,9_21 0
x2,9_28 0
x2,9_44 0
x2,9_62 0
x2,9_74 0
x2,9_76 0
x2,9_101 0
x2,9_109 0
x2,10_1 0
x2,10_15 0
x2,10_21 0
x2,10_28 0
x2,10_44 0
x2,10_62 0
x2,10_74 0
x2,10_76 0
x2,10_101 0
x2,10_109 0
x3,4_1 0
x3,4_15 0
x3,4_21 0
x3,4_28 0
x3,4_44 0
x3,4_62 0
x3,4_74 0
x3,4_76 0
x3,4_101 0
x3,4_109 0
x3,5_1 0
x3,5_15 0
x3,5_21 0
x3,5_28 0
x3,5_44 0
x3,5_62 0
x3,5_74 0
x3,5_76 0
x3,5_101 0
x3,5_109 0
x3,6_1 0
x3,6_15 0
x3,6_21 0
x3,6_28 0
x3,6_44 0
x3,6_62 0
x3,6_74 0
x3,6_76 0
x3,6_101 0
x3,6_109 0
x3,7_1 0
x3,7_15 0
x3,7_21 0
x3,7_28 0
x3,7_44 0
x3,7_62 0
x3,7_74 0
x3,7_76 0
x3,7_101 0
x3,7_109 0
x3,8_1 0
x3,8_15 0
x3,8_21 0
x3,8_28 0
x3,8_44 0
x3,8_62 0
x3,8_74 0
x3,8_76 0
x3,8_101 0
x3,8_109 0
x3,9_1 0
x3,9_15 0
x3,9_21 0
x3,9_28 0
x3,9_44 0
x3,9_62 0
x3,9_74 0
x3,9_76 0
x3,9_101 0
x3,9_109 0
x3,10_1 0
x3,10_15 0
x3,10_21 0
x3,10_28 0
x3,10_44 0
x3,10_62 0
x3,10_74 0
x3,10_76 0
x3,10_101 0
x3,10_109 0
x4,5_1 1
x4,5_15 0
x4,5_21 0
x4,5_28 0
x4,5_44 0
x4,5_62 0
x4,5_74 0
x4,5_76 0
x4,5_101 0
x4,5_109 0
x4,6_1 0
x4,6_15 1
x4,6_21 0
x4,6_28 0
x4,6_44 0
x4,6_62 0
x4,6_74 0
x4,6_76 0
x4,6_101 0
x4,6_109 0
x4,7_1 0
x4,7_15 0
x4,7_21 0
x4,7_28 0
x4,7_44 0
x4,7_62 0
x4,7_74 0
x4,7_76 0
x4,7_101 0
x4,7_109 0
x4,8_1 0
x4,8_15 0
x4,8_21 0
x4,8_28 0
x4,8_44 0
x4,8_62 0
x4,8_74 0
x4,8_76 0
x4,8_101 0
x4,8_109 0
x4,9_1 0
x4,9_15 0
x4,9_21 0
x4,9_28 0
x4,9_44 0
x4,9_62 0
x4,9_74 0
x4,9_76 0
x4,9_101 0
x4,9_109 0
x4,10_1 0
x4,10_15 0
x4,10_21 0
x4,10_28 0
x4,10_44 0
x4,10_62 0
x4,10_74 0
x4,10_76 0
x4,10_101 0
x4,10_109 0
x5,6_1 0
x5,6_15 0
x5,6_21 0
x5,6_28 0
x5,6_44 0
x5,6_62 0
x5,6_74 0
x5,6_76 0
x5,6_101 0
x5,6_109 0
x5,7_1 0
x5,7_15 0
x5,7_21 0
x5,7_28 0
x5,7_44 0
x5,7_62 0
x5,7_74 0
x5,7_76 1
x5,7_101 0
x5,7_109 0
x5,8_1 0
x5,8_15 0
x5,8_21 0
x5,8_28 0
x5,8_44 0
x5,8_62 0
x5,8_74 0
x5,8_76 0
x5,8_101 0
x5,8_109 0
x5,9_1 0
x5,9_15 0
x5,9_21 0
x5,9_28 0
x5,9_44 0
x5,9_62 0
x5,9_74 0
x5,9_76 0
x5,9_101 0
x5,9_109 0
x5,10_1 0
x5,10_15 0
x5,10_21 0
x5,10_28 0
x5,10_44 0
x5,10_62 0
x5,10_74 0
x5,10_76 0
x5,10_101 0
x5,10_109 0
x6,7_1 0
x6,7_15 0
x6,7_21 0
x6,7_28 0
x6,7_44 0
x6,7_62 1
x6,7_74 0
x6,7_76 0
x6,7_101 0
x6,7_109 0
x6,8_1 0
x6,8_15 0
x6,8_21 0
x6,8_28 0
x6,8_44 0
x6,8_62 0
x6,8_74 0
x6,8_76 0
x6,8_101 0
x6,8_109 0
x6,9_1 0
x6,9_15 0
x6,9_21 0
x6,9_28 0
x6,9_44 0
x6,9_62 0
x6,9_74 0
x6,9_76 0
x6,9_101 0
x6,9_109 0
x6,10_1 0
x6,10_15 0
x6,10_21 0
x6,10_28 0
x6,10_44 0
x6,10_62 0
x6,10_74 0
x6,10_76 0
x6,10_101 0
x6,10_109 0
x7,8_1 0
x7,8_15 0
x7,8_21 0
x7,8_28 0
x7,8_44 0
x7,8_62 0
x7,8_74 0
x7,8_76 0
x7,8_101 0
x7,8_109 0
x7,9_1 0
x7,9_15 0
x7,9_21 0
x7,9_28 0
x7,9_44 0
x7,9_62 0
x7,9_74 0
x7,9_76 0
x7,9_101 0
x7,9_109 0
x7,10_1 0
x7,10_15 0
x7,10_21 0
x7,10_28 0
x7,10_44 0
x7,10_62 0
x7,10_74 0
x7,10_76 0
x7,10_101 0
x7,10_109 0
x8,9_1 0
x8,9_15 0
x8,9_21 0
x8,9_28 0
x8,9_44 0
x8,9_62 0
x8,9_74 0
x8,9_76 0
x8,9_101 0
x8,9_109 0
x8,10_1 0
x8,10_15 0
x8,10_21 0
x8,10_28 0
x8,10_44 0
x8,10_62 0
x8,10_74 0
x8,10_76 0
x8,10_101 0
x8,10_109 0
x9,10_1 0
x9,10_15 0
x9,10_21 0
x9,10_28 0
x9,10_44 0
x9,10_62 0
x9,10_74 0
x9,10_76 0
x9,10_101 0
x9,10_109 0
z0 1
z1 1
z2 1
z3 1
z4 1
z5 1
z6 1
z7 1
z8 0
z9 0
z10 0
p0 1
p1 8
p2 29
p3 52
p4 102
p5 103
p6 117
p7 179
p8 212
p9 213
p10 214
